c File: data_files/evolved_graphs/g0142.col
c
c Auto generated graph
c
p edge 100 1354
e 1 3
e 1 4
e 1 5
e 1 6
e 1 7
e 1 8
e 1 23
e 1 24
e 1 25
e 1 26
e 1 27
e 1 28
e 1 29
e 1 30
e 1 31
e 1 38
e 1 51
e 1 52
e 1 54
e 1 55
e 1 56
e 1 57
e 1 58
e 1 59
e 1 60
e 1 61
e 1 62
e 1 63
e 1 64
e 1 65
e 1 66
e 1 67
e 1 76
e 1 87
e 1 89
e 1 91
e 2 3
e 2 4
e 2 5
e 2 6
e 2 7
e 2 8
e 2 23
e 2 24
e 2 25
e 2 26
e 2 28
e 2 29
e 2 30
e 2 51
e 2 54
e 2 55
e 2 56
e 2 57
e 2 58
e 2 60
e 2 61
e 2 62
e 2 63
e 2 64
e 2 65
e 2 66
e 2 67
e 2 72
e 2 77
e 2 80
e 2 82
e 2 84
e 2 85
e 2 89
e 2 94
e 2 95
e 2 96
e 2 98
e 3 23
e 3 24
e 3 25
e 3 27
e 3 28
e 3 29
e 3 30
e 3 31
e 3 41
e 3 46
e 3 51
e 3 55
e 3 56
e 3 57
e 3 58
e 3 59
e 3 60
e 3 61
e 3 62
e 3 63
e 3 64
e 3 65
e 3 66
e 3 70
e 3 72
e 3 78
e 3 79
e 3 80
e 3 82
e 3 83
e 3 84
e 3 86
e 3 91
e 3 98
e 3 100
e 4 23
e 4 24
e 4 25
e 4 26
e 4 27
e 4 28
e 4 29
e 4 30
e 4 31
e 4 52
e 4 55
e 4 56
e 4 57
e 4 58
e 4 59
e 4 61
e 4 62
e 4 63
e 4 64
e 4 66
e 4 67
e 4 69
e 4 74
e 4 79
e 4 82
e 4 83
e 4 85
e 4 89
e 4 96
e 5 23
e 5 25
e 5 26
e 5 27
e 5 28
e 5 29
e 5 30
e 5 31
e 5 39
e 5 40
e 5 41
e 5 42
e 5 43
e 5 44
e 5 45
e 5 46
e 5 47
e 5 48
e 5 52
e 5 55
e 5 56
e 5 57
e 5 58
e 5 59
e 5 60
e 5 61
e 5 62
e 5 63
e 5 64
e 5 65
e 5 66
e 5 67
e 5 72
e 5 75
e 5 77
e 5 78
e 5 79
e 5 85
e 5 86
e 5 90
e 6 23
e 6 24
e 6 25
e 6 26
e 6 27
e 6 28
e 6 29
e 6 30
e 6 31
e 6 39
e 6 40
e 6 41
e 6 42
e 6 43
e 6 44
e 6 45
e 6 46
e 6 47
e 6 48
e 6 50
e 6 51
e 6 53
e 6 54
e 6 55
e 6 56
e 6 57
e 6 58
e 6 59
e 6 60
e 6 61
e 6 62
e 6 63
e 6 64
e 6 65
e 6 66
e 6 67
e 6 75
e 6 79
e 6 82
e 6 84
e 6 87
e 6 90
e 6 91
e 7 23
e 7 24
e 7 25
e 7 26
e 7 27
e 7 28
e 7 29
e 7 30
e 7 31
e 7 39
e 7 40
e 7 41
e 7 42
e 7 43
e 7 44
e 7 45
e 7 46
e 7 48
e 7 50
e 7 51
e 7 53
e 7 55
e 7 56
e 7 57
e 7 58
e 7 59
e 7 60
e 7 61
e 7 62
e 7 63
e 7 64
e 7 65
e 7 66
e 7 67
e 7 72
e 7 73
e 7 76
e 7 78
e 7 81
e 7 90
e 7 93
e 7 97
e 8 23
e 8 24
e 8 26
e 8 27
e 8 28
e 8 29
e 8 30
e 8 31
e 8 39
e 8 40
e 8 41
e 8 42
e 8 43
e 8 44
e 8 45
e 8 46
e 8 47
e 8 49
e 8 52
e 8 55
e 8 56
e 8 57
e 8 58
e 8 59
e 8 60
e 8 62
e 8 63
e 8 65
e 8 66
e 8 67
e 8 72
e 8 74
e 8 75
e 8 76
e 8 77
e 8 78
e 8 79
e 8 81
e 8 86
e 8 89
e 8 91
e 8 98
e 8 99
e 9 14
e 9 15
e 9 16
e 9 17
e 9 18
e 9 19
e 9 20
e 9 21
e 9 22
e 9 23
e 9 24
e 9 25
e 9 27
e 9 28
e 9 29
e 9 30
e 9 31
e 9 32
e 9 33
e 9 34
e 9 35
e 9 36
e 9 37
e 9 38
e 9 39
e 9 40
e 9 41
e 9 42
e 9 43
e 9 44
e 9 45
e 9 46
e 9 47
e 9 48
e 9 49
e 9 50
e 9 51
e 9 52
e 9 53
e 9 54
e 9 55
e 9 56
e 9 57
e 9 58
e 9 60
e 9 61
e 9 62
e 9 63
e 9 64
e 9 65
e 9 66
e 9 67
e 9 78
e 9 81
e 9 90
e 9 91
e 9 96
e 9 97
e 10 14
e 10 15
e 10 16
e 10 17
e 10 18
e 10 19
e 10 20
e 10 21
e 10 22
e 10 23
e 10 24
e 10 25
e 10 26
e 10 27
e 10 28
e 10 29
e 10 30
e 10 31
e 10 32
e 10 33
e 10 34
e 10 35
e 10 36
e 10 37
e 10 38
e 10 39
e 10 40
e 10 41
e 10 42
e 10 43
e 10 44
e 10 45
e 10 46
e 10 48
e 10 49
e 10 50
e 10 51
e 10 52
e 10 53
e 10 54
e 10 55
e 10 57
e 10 58
e 10 59
e 10 60
e 10 61
e 10 62
e 10 63
e 10 64
e 10 65
e 10 66
e 10 67
e 10 73
e 10 74
e 10 75
e 10 77
e 10 80
e 10 99
e 10 100
e 11 14
e 11 15
e 11 16
e 11 17
e 11 18
e 11 19
e 11 20
e 11 21
e 11 22
e 11 23
e 11 24
e 11 25
e 11 26
e 11 27
e 11 28
e 11 29
e 11 30
e 11 31
e 11 32
e 11 33
e 11 34
e 11 35
e 11 36
e 11 37
e 11 38
e 11 39
e 11 40
e 11 41
e 11 42
e 11 43
e 11 44
e 11 45
e 11 47
e 11 48
e 11 49
e 11 50
e 11 51
e 11 52
e 11 53
e 11 54
e 11 55
e 11 56
e 11 57
e 11 58
e 11 60
e 11 61
e 11 62
e 11 63
e 11 64
e 11 65
e 11 66
e 11 93
e 12 14
e 12 15
e 12 16
e 12 17
e 12 18
e 12 19
e 12 20
e 12 21
e 12 22
e 12 23
e 12 24
e 12 25
e 12 26
e 12 27
e 12 28
e 12 29
e 12 30
e 12 31
e 12 32
e 12 33
e 12 34
e 12 35
e 12 36
e 12 37
e 12 38
e 12 39
e 12 40
e 12 41
e 12 42
e 12 43
e 12 45
e 12 46
e 12 47
e 12 49
e 12 50
e 12 51
e 12 52
e 12 53
e 12 54
e 12 55
e 12 56
e 12 57
e 12 58
e 12 59
e 12 60
e 12 61
e 12 62
e 12 63
e 12 64
e 12 65
e 12 66
e 12 99
e 12 100
e 13 14
e 13 15
e 13 16
e 13 17
e 13 18
e 13 19
e 13 20
e 13 21
e 13 22
e 13 23
e 13 24
e 13 25
e 13 26
e 13 27
e 13 28
e 13 29
e 13 30
e 13 31
e 13 32
e 13 33
e 13 34
e 13 35
e 13 36
e 13 37
e 13 38
e 13 39
e 13 40
e 13 41
e 13 43
e 13 44
e 13 45
e 13 47
e 13 49
e 13 50
e 13 52
e 13 54
e 13 55
e 13 56
e 13 57
e 13 58
e 13 61
e 13 62
e 13 63
e 13 64
e 13 65
e 13 66
e 13 67
e 13 91
e 13 98
e 13 99
e 14 28
e 14 55
e 14 57
e 14 58
e 14 59
e 14 60
e 14 61
e 14 63
e 14 64
e 14 65
e 14 66
e 14 67
e 14 91
e 14 94
e 15 55
e 15 56
e 15 57
e 15 58
e 15 59
e 15 60
e 15 61
e 15 62
e 15 63
e 15 64
e 15 65
e 15 66
e 15 67
e 15 92
e 15 96
e 15 98
e 16 55
e 16 56
e 16 57
e 16 58
e 16 60
e 16 61
e 16 62
e 16 63
e 16 64
e 16 65
e 16 66
e 16 67
e 16 92
e 16 93
e 16 96
e 16 98
e 17 67
e 17 68
e 17 69
e 17 70
e 17 92
e 17 96
e 18 67
e 18 92
e 18 93
e 18 97
e 19 66
e 19 92
e 19 94
e 20 27
e 20 67
e 20 70
e 20 92
e 21 69
e 21 92
e 21 94
e 21 95
e 22 65
e 22 71
e 22 73
e 22 74
e 22 75
e 22 76
e 22 77
e 22 78
e 22 79
e 22 82
e 22 84
e 22 85
e 22 86
e 22 87
e 22 88
e 22 90
e 22 91
e 22 92
e 22 93
e 22 95
e 23 57
e 23 60
e 23 61
e 23 72
e 23 75
e 23 86
e 23 94
e 24 55
e 24 56
e 24 57
e 24 59
e 24 60
e 24 61
e 24 62
e 24 63
e 24 64
e 24 65
e 24 66
e 24 67
e 24 69
e 24 93
e 25 55
e 25 56
e 25 57
e 25 58
e 25 59
e 25 60
e 25 61
e 25 62
e 25 63
e 25 64
e 25 65
e 25 66
e 25 90
e 25 93
e 25 96
e 26 55
e 26 56
e 26 57
e 26 58
e 26 59
e 26 60
e 26 61
e 26 62
e 26 63
e 26 64
e 26 65
e 26 66
e 26 67
e 26 75
e 26 78
e 26 89
e 26 93
e 26 94
e 26 96
e 27 55
e 27 56
e 27 57
e 27 59
e 27 60
e 27 61
e 27 62
e 27 63
e 27 64
e 27 65
e 27 66
e 27 67
e 27 79
e 27 91
e 27 93
e 27 94
e 28 55
e 28 57
e 28 58
e 28 59
e 28 60
e 28 61
e 28 63
e 28 64
e 28 65
e 28 66
e 28 77
e 28 91
e 28 93
e 28 100
e 29 55
e 29 56
e 29 57
e 29 58
e 29 59
e 29 60
e 29 62
e 29 63
e 29 64
e 29 65
e 29 66
e 29 67
e 29 77
e 30 54
e 30 55
e 30 56
e 30 57
e 30 58
e 30 59
e 30 60
e 30 61
e 30 62
e 30 63
e 30 64
e 30 65
e 30 66
e 30 67
e 30 71
e 30 79
e 30 94
e 31 55
e 31 56
e 31 57
e 31 58
e 31 59
e 31 60
e 31 61
e 31 62
e 31 64
e 31 65
e 31 66
e 31 67
e 31 69
e 31 76
e 31 94
e 32 55
e 32 56
e 32 57
e 32 58
e 32 59
e 32 60
e 32 61
e 32 62
e 32 64
e 32 65
e 32 66
e 32 67
e 32 74
e 32 79
e 32 96
e 33 55
e 33 56
e 33 57
e 33 59
e 33 60
e 33 61
e 33 62
e 33 63
e 33 65
e 33 66
e 33 67
e 33 69
e 33 70
e 33 97
e 34 55
e 34 56
e 34 57
e 34 58
e 34 59
e 34 60
e 34 61
e 34 62
e 34 63
e 34 64
e 34 65
e 34 66
e 34 67
e 34 73
e 34 79
e 35 55
e 35 56
e 35 57
e 35 58
e 35 59
e 35 60
e 35 61
e 35 62
e 35 63
e 35 64
e 35 65
e 35 66
e 35 67
e 35 71
e 35 72
e 35 95
e 36 55
e 36 56
e 36 57
e 36 58
e 36 59
e 36 60
e 36 61
e 36 63
e 36 64
e 36 65
e 36 66
e 36 67
e 36 72
e 36 79
e 36 88
e 37 55
e 37 56
e 37 57
e 37 58
e 37 59
e 37 60
e 37 61
e 37 62
e 37 63
e 37 64
e 37 65
e 37 66
e 37 67
e 37 71
e 38 55
e 38 56
e 38 57
e 38 58
e 38 59
e 38 60
e 38 61
e 38 62
e 38 63
e 38 64
e 38 65
e 38 66
e 38 67
e 39 55
e 39 57
e 39 58
e 39 59
e 39 60
e 39 61
e 39 62
e 39 63
e 39 64
e 39 65
e 39 66
e 39 67
e 39 76
e 40 55
e 40 56
e 40 58
e 40 59
e 40 60
e 40 61
e 40 62
e 40 63
e 40 64
e 40 65
e 40 66
e 40 67
e 40 69
e 40 78
e 41 55
e 41 56
e 41 57
e 41 58
e 41 59
e 41 60
e 41 61
e 41 62
e 41 63
e 41 64
e 41 65
e 41 66
e 41 67
e 42 55
e 42 56
e 42 57
e 42 58
e 42 59
e 42 60
e 42 61
e 42 62
e 42 63
e 42 64
e 42 65
e 42 66
e 42 67
e 42 76
e 42 98
e 43 55
e 43 56
e 43 57
e 43 58
e 43 59
e 43 60
e 43 61
e 43 62
e 43 63
e 43 64
e 43 65
e 43 66
e 43 67
e 43 70
e 43 98
e 44 55
e 44 56
e 44 57
e 44 58
e 44 59
e 44 61
e 44 62
e 44 63
e 44 64
e 44 65
e 44 66
e 44 67
e 44 71
e 44 76
e 45 56
e 45 57
e 45 58
e 45 59
e 45 60
e 45 61
e 45 62
e 45 63
e 45 64
e 45 65
e 45 66
e 45 67
e 45 69
e 45 95
e 46 55
e 46 56
e 46 57
e 46 58
e 46 59
e 46 60
e 46 61
e 46 62
e 46 63
e 46 64
e 46 65
e 46 66
e 46 67
e 46 78
e 46 95
e 46 97
e 47 55
e 47 56
e 47 57
e 47 58
e 47 59
e 47 60
e 47 61
e 47 62
e 47 63
e 47 64
e 47 65
e 47 66
e 47 67
e 47 79
e 47 88
e 47 93
e 48 55
e 48 56
e 48 57
e 48 58
e 48 59
e 48 60
e 48 61
e 48 62
e 48 63
e 48 64
e 48 66
e 48 67
e 48 71
e 48 75
e 48 93
e 49 56
e 49 57
e 49 58
e 49 59
e 49 60
e 49 61
e 49 62
e 49 63
e 49 64
e 49 65
e 49 66
e 49 67
e 49 79
e 50 55
e 50 56
e 50 57
e 50 58
e 50 59
e 50 60
e 50 61
e 50 62
e 50 63
e 50 64
e 50 65
e 50 66
e 50 67
e 50 72
e 50 92
e 50 98
e 51 55
e 51 56
e 51 57
e 51 58
e 51 59
e 51 60
e 51 61
e 51 62
e 51 64
e 51 65
e 51 66
e 51 67
e 51 69
e 52 55
e 52 56
e 52 57
e 52 58
e 52 59
e 52 60
e 52 61
e 52 62
e 52 63
e 52 64
e 52 65
e 52 66
e 52 67
e 52 72
e 53 55
e 53 56
e 53 57
e 53 58
e 53 59
e 53 60
e 53 61
e 53 62
e 53 63
e 53 64
e 53 65
e 53 66
e 53 67
e 53 68
e 53 78
e 54 55
e 54 56
e 54 57
e 54 58
e 54 59
e 54 61
e 54 62
e 54 63
e 54 64
e 54 65
e 54 66
e 54 67
e 54 70
e 54 71
e 54 80
e 54 81
e 54 82
e 54 83
e 54 84
e 54 85
e 54 86
e 54 87
e 54 95
e 55 62
e 55 63
e 55 64
e 55 66
e 55 69
e 55 75
e 55 83
e 55 84
e 55 86
e 55 89
e 55 90
e 55 91
e 56 62
e 56 70
e 56 80
e 56 88
e 56 95
e 57 61
e 57 62
e 57 64
e 57 68
e 57 82
e 57 87
e 57 97
e 57 98
e 58 65
e 59 65
e 59 82
e 60 65
e 60 79
e 60 83
e 60 90
e 60 96
e 61 65
e 61 67
e 61 70
e 62 65
e 63 65
e 64 65
e 64 66
e 64 67
e 64 68
e 64 69
e 64 70
e 64 71
e 64 72
e 64 73
e 64 74
e 64 75
e 64 76
e 64 77
e 64 78
e 64 88
e 64 97
e 65 91
e 65 94
e 65 96
e 65 97
e 65 98
e 65 99
e 65 100
e 66 94
e 66 95
e 66 96
e 66 97
e 66 98
e 66 99
e 66 100
e 67 96
e 67 97
e 67 98
e 67 99
e 67 100
e 68 93
e 68 97
e 68 98
e 68 99
e 68 100
e 69 91
e 69 94
e 69 96
e 69 97
e 69 98
e 69 99
e 69 100
e 70 91
e 70 92
e 70 96
e 70 97
e 70 98
e 70 99
e 70 100
e 71 91
e 71 96
e 71 97
e 71 98
e 71 99
e 71 100
e 72 91
e 72 95
e 72 96
e 72 97
e 72 98
e 72 99
e 72 100
e 73 91
e 73 94
e 73 95
e 73 96
e 73 97
e 73 98
e 73 99
e 73 100
e 74 96
e 74 97
e 74 98
e 74 99
e 74 100
e 75 92
e 75 96
e 75 97
e 75 98
e 75 99
e 75 100
e 76 96
e 76 97
e 76 98
e 76 99
e 76 100
e 77 92
e 77 96
e 77 97
e 77 98
e 77 99
e 77 100
e 78 96
e 78 97
e 78 98
e 78 99
e 78 100
e 79 91
e 79 92
e 79 96
e 79 97
e 79 98
e 79 99
e 79 100
e 80 91
e 80 96
e 80 97
e 80 98
e 80 99
e 80 100
e 81 91
e 81 92
e 81 96
e 81 97
e 81 98
e 81 99
e 81 100
e 82 86
e 82 91
e 82 94
e 82 96
e 82 97
e 82 98
e 82 99
e 82 100
e 83 96
e 83 97
e 83 98
e 83 99
e 83 100
e 84 93
e 84 94
e 84 96
e 84 97
e 84 98
e 84 99
e 84 100
e 85 92
e 85 97
e 85 98
e 85 99
e 85 100
e 86 96
e 86 97
e 86 98
e 86 99
e 86 100
e 87 92
e 87 94
e 87 96
e 87 97
e 87 98
e 87 99
e 87 100
e 88 96
e 88 97
e 88 98
e 88 99
e 88 100
e 89 91
e 89 92
e 89 95
e 89 97
e 89 99
e 90 100
e 91 99
e 92 96
e 92 98
e 92 100
e 93 97
e 93 99
e 93 100
e 94 96
e 94 100
e 95 99
